
Gurobi 9.0.2 (win64) logging started Sun Dec 27 05:02:17 2020

Changed value of parameter logfile to result\SunCable-20201227T0415\scenario_2030_m20_cab2000.log
   Prev:   Default: 
Gurobi Optimizer version 9.0.2 build v9.0.2rc0 (win64)
Optimize a model with 1243974 rows, 762167 columns and 3491691 nonzeros
Model fingerprint: 0x2ced5b47
Coefficient statistics:
  Matrix range     [1e-07, 3e+05]
  Objective range  [1e+00, 1e+00]
  Bounds range     [0e+00, 0e+00]
  RHS range        [2e-05, 3e+08]
Warning: Model contains large matrix coefficient range
         Consider reformulating model or setting NumericFocus parameter
         to avoid numerical issues.

Concurrent LP optimizer: primal simplex, dual simplex, and barrier
Showing barrier log only...

Presolve removed 1068997 rows and 595935 columns
Presolve time: 2.95s
Presolved: 174977 rows, 280098 columns, 652320 nonzeros

Ordering time: 0.08s

Barrier statistics:
 Dense cols : 5
 AA' NZ     : 6.422e+05
 Factor NZ  : 3.150e+06 (roughly 200 MBytes of memory)
 Factor Ops : 7.040e+07 (less than 1 second per iteration)
 Threads    : 30

                  Objective                Residual
Iter       Primal          Dual         Primal    Dual     Compl     Time
   0  -2.36042184e+16 -1.07293515e+15  6.88e+06 2.59e+04  2.83e+12     3s
   1  -5.15570864e+15 -1.08581199e+15  1.50e+06 4.54e+06  8.06e+11     4s
   2  -1.56060022e+15 -1.02958674e+15  4.56e+05 1.20e+06  2.42e+11     4s
   3  -3.70251611e+14 -9.29749024e+14  1.09e+05 1.63e+05  5.28e+10     4s
   4  -8.72772428e+13 -5.80805952e+14  2.44e+04 4.07e+04  1.26e+10     5s
   5  -2.73082137e+13 -3.52344713e+14  7.66e+03 1.64e+04  4.43e+09     5s
   6  -9.43540191e+12 -1.85940936e+14  2.78e+03 3.37e+03  1.44e+09     5s
   7  -1.37104224e+12 -9.16769867e+13  5.10e+02 3.33e+02  3.03e+08     5s
   8   3.44231149e+11 -1.64899871e+13  1.22e+01 7.96e+00  3.14e+07     5s
   9   1.40245278e+11 -2.69882627e+12  1.15e+00 9.37e-01  5.08e+06     6s
  10   6.92240681e+10 -1.41295462e+12  4.28e-01 3.15e-01  2.63e+06     6s
  11   2.98265060e+10 -3.71039987e+11  1.13e-01 7.45e-09  7.10e+05     6s
  12   1.36412072e+10 -1.22618335e+11  3.25e-02 7.45e-09  2.41e+05     7s
  13   1.27880644e+10 -4.52421499e+10  2.89e-02 1.12e-08  1.03e+05     7s
  14   1.26116833e+10 -3.79859534e+10  2.51e-02 1.12e-08  9.00e+04     7s
  15   9.07209338e+09 -7.63536751e+09  9.62e-03 1.12e-08  2.98e+04     7s
  16   7.69309653e+09  1.44021835e+09  3.87e-03 9.31e-09  1.11e+04     7s
  17   7.07030061e+09  4.07454943e+09  1.78e-03 7.45e-09  5.32e+03     8s
  18   6.83482219e+09  5.69969911e+09  1.04e-03 5.59e-09  2.02e+03     8s
  19   6.69056618e+09  5.91559318e+09  5.99e-04 3.73e-09  1.37e+03     8s
  20   6.66813899e+09  6.05123735e+09  5.40e-04 3.73e-09  1.09e+03     8s
  21   6.62114139e+09  6.15096469e+09  4.01e-04 2.79e-09  8.33e+02     9s
  22   6.60426175e+09  6.25991432e+09  3.49e-04 2.79e-09  6.11e+02     9s
  23   6.57260425e+09  6.32797688e+09  2.45e-04 1.86e-09  4.34e+02     9s
  24   6.55597240e+09  6.38614586e+09  1.86e-04 1.86e-09  3.01e+02    10s
  25   6.54167371e+09  6.41729362e+09  1.39e-04 1.86e-09  2.20e+02    10s
  26   6.53320625e+09  6.44538138e+09  1.08e-04 1.86e-09  1.56e+02    10s
  27   6.52330245e+09  6.45533370e+09  7.20e-05 1.86e-09  1.20e+02    11s
  28   6.51586301e+09  6.46828079e+09  4.50e-05 1.86e-09  8.42e+01    11s
  29   6.51054496e+09  6.47706535e+09  2.53e-05 1.86e-09  5.92e+01    11s
  30   6.50842876e+09  6.49036507e+09  1.76e-05 1.86e-09  3.20e+01    12s
  31   6.50661203e+09  6.49663160e+09  1.11e-05 1.86e-09  1.77e+01    12s
  32   6.50488409e+09  6.49901620e+09  4.78e-06 1.86e-09  1.04e+01    12s
  33   6.50417416e+09  6.50075816e+09  2.20e-06 1.86e-09  6.03e+00    12s
  34   6.50385872e+09  6.50178268e+09  1.12e-06 1.86e-09  3.66e+00    13s
  35   6.50370376e+09  6.50251790e+09  6.08e-07 1.86e-09  2.09e+00    13s
  36   6.50358558e+09  6.50286212e+09  2.05e-07 1.86e-09  1.27e+00    13s
  37   6.50355448e+09  6.50333798e+09  6.32e-07 1.86e-09  3.82e-01    13s
  38   6.50353016e+09  6.50349106e+09  4.04e-07 2.79e-09  6.91e-02    13s
  39   6.50352083e+09  6.50351825e+09  2.55e-08 3.73e-09  4.60e-03    14s
  40   6.50351906e+09  6.50351905e+09  4.64e-08 4.48e-09  1.51e-05    14s
  41   6.50351906e+09  6.50351906e+09  4.55e-12 7.39e-09  1.69e-11    14s

Barrier solved model in 41 iterations and 14.23 seconds
Optimal objective 6.50351906e+09

Crossover log...

   19207 DPushes remaining with DInf 0.0000000e+00                14s
      78 DPushes remaining with DInf 0.0000000e+00                15s
       0 DPushes remaining with DInf 0.0000000e+00                15s
Warning: Markowitz tolerance tightened to 0.5

   79175 PPushes remaining with PInf 0.0000000e+00                15s
       0 PPushes remaining with PInf 0.0000000e+00                19s

  Push phase complete: Pinf 0.0000000e+00, Dinf 6.2729626e-09     19s

Iteration    Objective       Primal Inf.    Dual Inf.      Time
   80720    6.5035191e+09   0.000000e+00   0.000000e+00     22s

Solved with barrier
Solved in 80720 iterations and 21.66 seconds
Optimal objective  6.503519057e+09
Warning: unscaled primal violation = 0.000875276 and residual = 0.000875276
